(set-info :Origin "This instance was generated by: BanditFuzz-- an RL fuzzer for SMT solvers" )
(set-info :Author "Joe Scott, Fed Mora, Vijay Ganesh" )
(set-info :Contact "Joe Scott, joseph.scott@uwaterloo.ca")
(set-logic QF_BV)
(declare-const bool_0 Bool)
(declare-const bool_1 Bool)
(declare-const bool_2 Bool)
(declare-const bool_3 Bool)
(declare-const bool_4 Bool)
(declare-const bv_0 (_ BitVec 32))
(declare-const bv_1 (_ BitVec 32))
(declare-const bv_2 (_ BitVec 32))
(declare-const bv_3 (_ BitVec 32))
(declare-const bv_4 (_ BitVec 32))
(assert (bvsle (bvshl (bvnand #x4ae37970  #x99585fad ) (bvsdiv #x66b12894  bv_1)) (bvlshr (bvsrem bv_3 bv_3) (bvsub bv_3 bv_2))))
(assert (bvule (bvxor (bvshl bv_1 #xa7c9269e ) (bvudiv bv_4 bv_0)) (bvnor (bvurem bv_1 #xe8fa7f32 ) (bvsub #xd5516b8e  #x2a3dfdde ))))
(assert (bvsgt (bvashr (bvsmod #x8fb1e317  #x92ad10cf ) (bvxnor #x93838172  bv_0)) (bvashr (bvlshr bv_4 #x2da860e0 ) (bvmul #x7515625e  bv_1))))
(assert (and (bvslt (bvmul bv_2 bv_4) (bvxor bv_1 #x66e78b19 )) (bvsgt (bvor bv_3 bv_2) (bvnor bv_4 #x63226fc5 ))))
(assert (bvugt (bvsrem (bvurem #x92ae3953  #x31c6b9e0 ) (bvashr #x3a6e75e2  bv_3)) (bvudiv (bvsrem bv_1 #xe29a39c7 ) (bvsub bv_2 #x8051ff77 ))))
(check-sat)
(exit)
